outputs/case_225.model.txt
transaction_amount_or_ratio = 10000000
related_person_includes_spouse_and_2nd_degree_blood = True
related_corporate_person_includes_enterprise_with_chairman_manager_or_majority_board = True
related_corporate_person_includes_chairman_and_manager_and_spouse_and_2nd_degree_blood = True
transaction_is_other_regulated_by_authority = False
threshold_amount_or_ratio = 5000000
transaction_is_short_term_note_guarantee_or_endorsement = False
transaction_is_credit = True
related_enterprise_applies_company_law_369_1_to_369_3_369_9_369_11 = True
transaction_is_investment_or_purchase_of_issuer_securities = False
same_person_is_natural_or_legal = True
related_person_includes_enterprise_responsible_by_person_or_spouse = True
related_corporate_person_includes_enterprise_with_1_3_share_or_control = True
transaction_is_derivative_financial_product = False
transaction_is_repurchase_of_note_or_bond = False
report_to_authority = True
report_within_30_days_after_quarter_end = True
disclose_publicly = True
violation_article_60_15 = False
transaction_scope_valid = True
related_person_definition = True
transaction_reporting_required = True
penalty = False
violation_article_46 = False
violation_article_60_any = False